p edge 28 112
e 1 10
e 1 16
e 1 19
e 1 20
e 2 4
e 2 11
e 2 17
e 2 18
e 3 7
e 3 12
e 3 20
e 3 28
e 4 15
e 4 17
e 4 23
e 4 25
e 5 1
e 5 4
e 5 17
e 5 20
e 6 3
e 6 10
e 6 27
e 6 27
e 7 6
e 7 16
e 7 20
e 7 28
e 8 11
e 8 15
e 8 18
e 8 27
e 9 1
e 9 2
e 9 24
e 9 24
e 10 2
e 10 3
e 10 6
e 10 26
e 11 7
e 11 8
e 11 18
e 11 21
e 12 17
e 12 18
e 12 23
e 12 24
e 13 8
e 13 9
e 13 9
e 13 27
e 14 9
e 14 10
e 14 19
e 14 19
e 15 5
e 15 10
e 15 14
e 15 18
e 16 6
e 16 20
e 16 25
e 16 27
e 17 13
e 17 18
e 17 22
e 17 26
e 18 3
e 18 4
e 18 11
e 18 24
e 19 1
e 19 8
e 19 15
e 19 24
e 20 5
e 20 13
e 20 15
e 20 25
e 21 5
e 21 8
e 21 23
e 21 24
e 22 5
e 22 13
e 22 13
e 22 16
e 23 1
e 23 8
e 23 9
e 23 19
e 24 7
e 24 8
e 24 12
e 24 19
e 25 11
e 25 15
e 25 15
e 25 16
e 26 6
e 26 7
e 26 18
e 26 22
e 27 1
e 27 9
e 27 21
e 27 26
e 28 7
e 28 14
e 28 17
e 28 22
